000 000 000 000 000 000 000 000 000 000 001 002 001 002 004 003 006 015 035 047 065 089 069 098 116 123 116 191 220 187 158
000 000 000 000 000 000 000 000 000 001 002 001 002 003 006 008 010 024 038 028 057 057 066 083 129 102 118 211 220 162 061
000 000 000 000 000 000 000 000 001 002 003 003 003 003 008 012 020 023 028 052 042 055 050 100 134 118 083 114 152 211 078
000 001 000 000 000 000 001 002 002 004 008 007 004 003 011 023 031 024 025 023 033 046 066 062 061 089 062 109 114 123 048
000 001 001 004 001 001 001 003 003 004 016 009 005 005 020 016 016 013 028 022 016 031 064 052 069 087 064 071 109 085 052
000 000 002 003 003 002 002 003 002 002 007 013 009 010 023 012 011 006 011 016 030 030 051 058 037 078 046 064 102 069 048
000 000 001 001 003 003 002 003 002 002 005 010 015 023 035 017 007 003 002 010 030 033 037 051 042 047 052 085 080 068 033
001 001 001 001 002 002 004 002 002 002 005 007 013 014 025 012 009 003 002 004 020 026 034 034 036 021 034 064 078 047 024
002 002 001 001 001 002 002 004 001 002 002 006 006 004 024 013 010 003 001 003 013 010 019 028 023 017 024 038 061 032 017
002 003 002 002 002 002 002 002 001 000 002 003 003 005 008 008 005 003 001 001 004 005 005 015 012 015 010 023 046 025 012
001 002 002 002 002 004 002 002 001 000 001 001 001 002 003 004 005 002 001 000 002 002 002 005 005 006 006 019 021 009 011
001 001 002 001 002 002 003 002 001 001 000 001 000 001 002 002 003 002 001 001 001 001 001 001 002 002 001 004 011 007 005
001 001 002 001 001 001 001 001 000 000 000 001 000 001 002 002 002 001 001 001 001 001 -99 000 000 001 001 002 004 003 001
001 001 001 000 001 000 001 001 001 001 000 001 001 001 001 002 002 001 001 001 001 000 -99 000 000 000 000 001 003 002 000
001 001 001 000 000 000 000 001 000 001 000 001 001 003 003 003 002 001 000 001 001 000 -99 000 000 000 000 001 001 000 -99
000 000 000 000 000 000 000 001 000 001 001 002 002 003 003 003 002 001 000 000 000 000 000 000 000 000 000 000 000 000 -99
000 000 000 000 000 000 000 000 000 001 000 001 001 002 002 002 001 000 000 000 000 000 000 000 000 000 000 000 000 000 000
000 000 000 000 000 000 000 000 000 000 000 000 000 001 001 002 002 001 000 000 000 001 000 000 000 000 000 000 000 000 000
000 000 000 000 000 000 000 000 000 000 000 000 000 001 000 001 002 001 000 000 000 000 000 000 000 000 000 000 -99 000 000
000 000 000 000 000 000 000 000 000 000 000 000 000 000 000 000 000 000 000 000 000 000 000 -99 -99 000 000 000 -99 000 000
000 000 000 000 000 000 000 000 000 000 000 000 000 000 000 000 000 000 000 000 000 000 000 -99 -99 -99 -99 -99 -99 -99 -99
000 000 000 000 000 000 000 000 000 000 000 000 000 000 000 000 000 000 000 000 000 000 000 -99 -99 -99 -99 -99 -99 -99 -99
000 000 000 000 000 000 000 000 000 000 000 000 000 000 000 000 000 000 000 000 000 000 000 -99 -99 -99 -99 -99 -99 -99 -99
000 000 000 000 000 000 000 000 000 000 000 000 000 000 000 000 000 000 000 000 000 000 000 -99 -99 -99 -99 -99 -99 -99 000
000 000 000 000 000 000 000 000 000 000 000 000 000 000 000 000 000 000 000 000 000 000 000 -99 -99 -99 -99 -99 -99 -99 000
000 000 000 000 000 000 000 000 000 000 000 000 000 000 000 000 000 000 000 000 000 000 000 -99 -99 -99 -99 -99 -99 000 000
000 000 000 000 000 000 000 000 000 000 000 000 000 000 000 000 000 001 000 000 000 000 000 -99 -99 -99 -99 -99 -99 000 000
000 000 000 000 000 000 000 000 000 000 000 000 001 000 000 001 001 000 000 000 000 000 000 -99 -99 -99 -99 -99 -99 -99 000
000 000 000 000 000 000 000 000 000 000 000 000 001 001 000 000 001 000 000 000 000 000 -99 -99 -99 -99 -99 -99 -99 -99 000
000 000 000 000 000 000 000 000 000 000 000 000 001 002 001 000 001 000 000 000 000 000 -99 -99 -99 -99 -99 -99 -99 -99 000
000 000 -99 000 000 000 000 000 000 000 000 000 000 001 000 001 001 001 001 000 000 000 -99 000 000 000 000 -99 -99 -99 000
-99 000 000 000 000 000 000 000 000 000 000 000 000 001 002 001 001 001 001 000 000 000 000 000 000 000 000 -99 -99 -99 000
000 000 000 000 000 000 000 000 000 000 000 000 000 001 001 001 001 001 001 001 001 001 000 001 000 000 000 000 000 -99 000
000 000 000 000 000 000 000 000 000 000 000 000 000 001 001 002 002 001 001 001 001 001 001 001 000 000 000 000 000 000 000
000 000 000 000 000 000 000 000 000 000 000 000 000 001 001 002 001 002 000 001 001 001 001 000 000 000 000 000 000 000 000
000 000 000 000 000 000 000 000 000 000 000 000 000 000 001 001 001 001 001 001 001 000 000 000 000 000 000 000 000 000 -99
000 000 -99 000 000 000 000 000 000 000 000 000 000 000 000 000 001 001 001 001 000 000 000 000 000 000 000 000 000 000 -99
000 -99 -99 000 000 000 000 000 000 000 -99 000 000 000 000 000 000 001 000 000 000 000 000 000 000 000 000 000 -99 000 -99
000 000 000 000 000 000 000 -99 -99 -99 -99 000 000 000 000 000 000 000 000 000 000 000 000 000 000 000 000 -99 -99 000 -99
000 000 000 000 000 -99 000 -99 -99 -99 -99 000 000 000 000 000 000 000 -99 000 000 000 000 000 -99 000 000 -99 -99 000 -99
-99 000 000 000 000 -99 -99 -99 -99 -99 000 000 000 000 000 000 000 -99 -99 -99 000 -99 -99 000 000 000 000 -99 -99 -99 -99
000 000 001 000 -99 -99 -99 -99 -99 000 000 -99 000 000 000 000 -99 -99 000 -99 -99 -99 -99 000 000 000 -99 -99 -99 -99 -99
000 001 001 -99 -99 000 -99 -99 -99 000 000 000 000 000 -99 000 -99 -99 000 -99 -99 -99 -99 000 000 000 -99 -99 -99 -99 -99
000 000 -99 -99 -99 000 -99 -99 -99 000 000 000 000 000 000 000 000 000 000 -99 -99 -99 000 000 000 000 -99 -99 -99 -99 -99
000 000 -99 -99 000 -99 -99 -99 -99 000 000 000 000 000 000 000 000 000 000 000 -99 -99 -99 000 000 -99 000 -99 -99 -99 -99
000 -99 -99 -99 -99 -99 -99 -99 -99 000 000 000 000 000 -99 000 -99 000 000 000 -99 -99 000 000 000 000 000 -99 -99 -99 -99
000 -99 -99 -99 -99 -99 -99 -99 -99 000 -99 000 000 -99 -99 -99 -99 000 000 -99 000 000 -99 000 000 000 000 -99 -99 -99 -99
-99 -99 -99 -99 -99 -99 -99 -99 -99 000 -99 -99 000 000 -99 -99 -99 000 -99 -99 000 000 -99 000 000 000 -99 -99 -99 -99 -99
-99 -99 -99 -99 -99 -99 -99 -99 -99 -99 -99 -99 000 000 -99 -99 -99 -99 -99 000 000 000 000 000 000 000 -99 -99 -99 -99 -99
-99 -99 -99 -99 -99 -99 -99 -99 -99 000 -99 -99 000 000 -99 -99 -99 -99 -99 000 000 000 000 000 000 -99 -99 -99 -99 -99 -99
-99 -99 -99 -99 -99 -99 -99 -99 000 000 000 -99 000 000 -99 -99 -99 -99 -99 -99 000 000 -99 -99 -99 -99 -99 -99 -99 -99 -99
-99 -99 -99 -99 -99 -99 -99 -99 000 -99 -99 -99 000 000 -99 -99 -99 -99 000 -99 000 -99 -99 -99 -99 -99 -99 -99 -99 -99 -99
-99 -99 -99 -99 -99 -99 -99 -99 -99 -99 -99 -99 -99 -99 -99 -99 -99 000 000 -99 000 -99 -99 -99 -99 -99 -99 -99 -99 -99 -99
-99 -99 -99 -99 -99 -99 -99 -99 -99 -99 -99 -99 -99 -99 -99 -99 -99 000 -99 -99 -99 -99 -99 -99 -99 -99 -99 -99 -99 -99 -99
-99 -99 -99 -99 -99 -99 -99 -99 -99 -99 -99 -99 -99 -99 -99 -99 -99 -99 -99 -99 -99 -99 -99 -99 -99 -99 -99 -99 -99 -99 -99
